TCS_Benchmarks/redos_fix/regexlib1_output_distinct_247_246_16_0.txt
(\d{1,3})([0-9]{4})
(\d{1,3})([\-\ ]?(\()?([0-9]{3})(?(2)\)|(\))?)([\-\.\ ])?([0-9]{3})(?(5)([\-\.\ ])|([\-\.\ ])?))([0-9]{4})